Quantum-Cryptanalysis/instances/samples/hf_n32/hf_n32_cnf05.sol
c DPLL-like Solver for max-min SAT
f file hf_n32_cnf05.cnf
p cnf 32 220
s max  220 8 -7 5 6 -22 -30 -4 -1 -21 -3 -2 -17 -28 -15 -16 -13 -14 -24 -18 12 23 11 -10 -9 -20 -29 -26 -31 -25 -32 -27 -19
s min  192 -16 -15 -14 -13 28 24 9 19 -12 11 10 31 -22 -8 20 -29 23 -18 21 -30 27 32 -25 26 -17 -1 -2 -3 4 5 -6 -7